Automatic mesh
0
Gamma
     2     2     1
 0.000 0.000 0.000
