Si3 O6                                  
   1.00000000000000     
     5.0384187971637697    0.0000000000000000    0.0000000000000000
    -2.5192093985818849    4.3633987526295090    0.0000000000000000
     0.0000000000000000    0.0000000000000000    5.5263764636377362
   Si   O 
     3     6
Direct
  0.4787428659271455  0.0000000000000000  0.3333330000000032
  0.9999999999998792  0.4787428659269040  0.6666669999999968
  0.5212571340729752  0.5212571340730960  0.0000000000000000
  0.4154849866690924  0.2515012537182812  0.2016672908320203
  0.7484987462810508  0.1639837329469671  0.5350002908320306
  0.8360162670498639  0.5845150133347374  0.8683342908320313
  0.2515012537151193  0.4154849866652626  0.7983327091679726
  0.1639837329508040  0.7484987462817188  0.4649997091679765
  0.5845150133340695  0.8360162670530329  0.1316657091679758
 
  0.00000000E+00  0.00000000E+00  0.00000000E+00
  0.00000000E+00  0.00000000E+00  0.00000000E+00
  0.00000000E+00  0.00000000E+00  0.00000000E+00
  0.00000000E+00  0.00000000E+00  0.00000000E+00
  0.00000000E+00  0.00000000E+00  0.00000000E+00
  0.00000000E+00  0.00000000E+00  0.00000000E+00
  0.00000000E+00  0.00000000E+00  0.00000000E+00
  0.00000000E+00  0.00000000E+00  0.00000000E+00
  0.00000000E+00  0.00000000E+00  0.00000000E+00
