Mg2 F4                                  
   1.00000000000000     
     4.6843274963414636    0.0000000000000000    0.0000000000000000
     0.0000000000000000    4.6843274963414636    0.0000000000000000
     0.0000000000000000    0.0000000000000000    3.0809585512484174
   Mg   F 
     2     4
Direct
  0.0000000000000000  0.0000000000000000  0.0000000000000000
  0.5000000000000000  0.5000000000000000  0.5000000000000000
  0.1964941672333628  0.8035058327666372  0.5000000000000000
  0.8035058327666372  0.1964941672333628  0.5000000000000000
  0.6964941672333628  0.6964941672333628 -0.0000000000000000
  0.3035058327666372  0.3035058327666372  0.0000000000000000
 
  0.00000000E+00  0.00000000E+00  0.00000000E+00
  0.00000000E+00  0.00000000E+00  0.00000000E+00
  0.00000000E+00  0.00000000E+00  0.00000000E+00
  0.00000000E+00  0.00000000E+00  0.00000000E+00
  0.00000000E+00  0.00000000E+00  0.00000000E+00
  0.00000000E+00  0.00000000E+00  0.00000000E+00
