Cs I                                    
   1.00000000000000     
     7.8487501703963352    0.0000000125351335    0.0000000132745471
     0.0000000132745471    7.8487501703963352    0.0000000125351335
     0.0000000125351335    0.0000000132745471    7.8487501703963352
   Cs   I 
     4     4
Direct
 -0.0000000000000000  0.0000000000000000  0.0000000000000000
  0.5000000000000000  0.5000000000000000  0.0000000000000000
  0.5000000000000000 -0.0000000000000000  0.5000000000000000
  0.0000000000000000  0.5000000000000000  0.5000000000000000
 -0.0000000000000000 -0.0000000000000000  0.5000000000000000
  0.5000000000000000 -0.0000000000000000  0.0000000000000000
 -0.0000000000000000  0.5000000000000000  0.0000000000000000
  0.5000000000000000  0.5000000000000000  0.5000000000000000
 
