Al2 N2                                  
   1.00000000000000     
     3.1276245839133217    0.0000000000000000    0.0000000000000000
    -1.5638122919566608    2.7086026569044197    0.0000000000000000
    -0.0000000000000000    0.0000000000000000    5.0164235547203928
   Al   N 
     2     2
Direct
  0.3333330000000032  0.6666669999999968  0.9992753968511012
  0.6666669999999968  0.3333330000000032  0.4992753968511013
  0.3333330000000032  0.6666669999999968  0.3807246031489013
  0.6666669999999968  0.3333330000000032  0.8807246031489013
 
  0.00000000E+00  0.00000000E+00  0.00000000E+00
  0.00000000E+00  0.00000000E+00  0.00000000E+00
  0.00000000E+00  0.00000000E+00  0.00000000E+00
  0.00000000E+00  0.00000000E+00  0.00000000E+00
