Zn2 O2                                  
   1.00000000000000     
     3.2874948204095009   -0.0000000002822508   -0.0000000000000000
    -1.6437469106936577    2.8470542754006076    0.0000000000000000
    -0.0000000000000000    0.0000000000000000    5.3041549333412741
   Zn   O 
     2     2
Direct
  0.3333330000000032  0.6666669999999968  0.0005440991071526
  0.6666669999999968  0.3333330000000032  0.5005440991071526
  0.3333330000000032  0.6666669999999968  0.3797659008928489
  0.6666669999999968  0.3333330000000032  0.8797659008928489
 
