      PREC = Accurate
       GGA = PS
    IBRION = 2
       NSW = 20
    NELMIN = 5
      ISIF = 3
     ENCUT = 520.000000
     EDIFF = 1.000000e-08
    EDIFFG = -1.000000e-08
    ISMEAR = 0
     SIGMA = 1.000000e-02
     IALGO = 38
     LREAL = .FALSE.
   ADDGRID = .TRUE.
     LWAVE = .FALSE.
    LCHARG = .FALSE.
      NPAR = 4
