 O Al
   1.0
     4.7746283700000003    0.0000000000000000    0.0000000000000000
    -2.3873141900000001    4.1349494699999996    0.0000000000000000
     0.0000000000000000    0.0000000000000000   13.0133564899999996
 O Al
  18  12
Direct
   0.3333333300000000  0.3608655600000000  0.9166666700000000
   0.6941988900000000  0.6941988900000000  0.7500000000000000
   0.6391344400000001  0.9724677800000000  0.9166666700000000
   0.0275322200000000  0.6666666700000000  0.9166666700000000
   0.3058011100000000  0.0000000000000000  0.7500000000000000
   0.0000000000000000  0.3058011100000000  0.7500000000000000
   0.0000000000000000  0.6941988900000000  0.2500000000000000
   0.3608655600000000  0.0275322200000000  0.0833333300000000
   0.3058011100000000  0.3058011100000000  0.2500000000000000
   0.6941988900000000  0.0000000000000000  0.2500000000000000
   0.9724677800000000  0.3333333300000000  0.0833333300000000
   0.6666666700000000  0.6391344400000001  0.0833333300000000
   0.6666666700000000  0.0275322200000000  0.5833333300000000
   0.0275322200000000  0.3608655600000000  0.4166666700000000
   0.9724677800000000  0.6391344400000001  0.5833333300000000
   0.3608655600000000  0.3333333300000000  0.5833333300000000
   0.6391344400000001  0.6666666700000000  0.4166666700000000
   0.3333333300000000  0.9724677800000000  0.4166666700000000
   0.6666666700000000  0.3333333300000000  0.6854228700000000
   0.3333333300000000  0.6666666700000000  0.8145771300000000
   0.0000000000000000  0.0000000000000000  0.8520895400000000
   0.6666666700000000  0.3333333300000000  0.9812437899999999
   0.3333333300000000  0.6666666700000000  0.0187562100000000
   0.0000000000000000  0.0000000000000000  0.1479104600000000
   0.6666666700000000  0.3333333300000000  0.1854228700000000
   0.3333333300000000  0.6666666700000000  0.3145771300000000
   0.0000000000000000  0.0000000000000000  0.3520895400000000
   0.6666666700000000  0.3333333300000000  0.4812437900000000
   0.3333333300000000  0.6666666700000000  0.5187562100000001
   0.0000000000000000  0.0000000000000000  0.6479104600000001