Ca1 F2                                  
   1.00000000000000     
     0.0000000000000000    2.7532873077292201    2.7532873077292201
     2.7532873077292201    0.0000000000000000    2.7532873077292201
     2.7532873077292201    2.7532873077292201   -0.0000000000000000
   Ca   F 
     1     2
Direct
 -0.0000000000000000  0.0000000000000000 -0.0000000000000000
  0.2500000000000000  0.2500000000000000  0.2500000000000000
  0.7500000000000000  0.7500000000000000  0.7500000000000000
 
  0.00000000E+00  0.00000000E+00  0.00000000E+00
  0.00000000E+00  0.00000000E+00  0.00000000E+00
  0.00000000E+00  0.00000000E+00  0.00000000E+00
