Pb4 Se4                                  
   1.00000000000000     
     6.2060260562210150    0.0000000000000000   -0.0000000000000000
     0.0000000000000000    6.2060260562210150   -0.0000000000000000
    -0.0000000000000000    0.0000000000000000    6.2060260562210150
   Pb   Se 
     4     4
Direct
  0.0000000000000000  0.0000000000000000 -0.0000000000000000
  0.5000000000000000  0.5000000000000000 -0.0000000000000000
  0.5000000000000000 -0.0000000000000000  0.5000000000000000
  0.0000000000000000  0.5000000000000000  0.5000000000000000
  0.0000000000000000  0.0000000000000000  0.5000000000000000
  0.5000000000000000  0.0000000000000000  0.0000000000000000
 -0.0000000000000000  0.5000000000000000  0.0000000000000000
  0.5000000000000000  0.5000000000000000  0.5000000000000000
 

