Ga2 N2                                  
   1.00000000000000     
     3.2473924959179223    0.0000000000000000    0.0000000000000000
    -1.6236962479589612    2.8123245560576473    0.0000000000000000
     0.0000000000000000    0.0000000000000000    5.2800792454477170
   Ga   N 
     2     2
Direct
  0.3333330000000032  0.6666669999999968  0.9989412896702916
  0.6666669999999968  0.3333330000000032  0.4989412896702916
  0.3333330000000032  0.6666669999999968  0.3760587103297084
  0.6666669999999968  0.3333330000000032  0.8760587103297084
 

