generated by phonopy
   1.0
     9.7421774877537679    0.0000000000000000    0.0000000000000000
    -4.8710887438768840    8.4369736681729428    0.0000000000000000
     0.0000000000000000    0.0000000000000000   10.5601584908954340
Ga N
  36   36
Direct
  0.1111110000000011  0.2222223333333322  0.4994706448351458
  0.4444443333333344  0.2222223333333322  0.4994706448351458
  0.7777776666666677  0.2222223333333322  0.4994706448351458
  0.1111110000000011  0.5555556666666656  0.4994706448351458
  0.4444443333333344  0.5555556666666656  0.4994706448351458
  0.7777776666666677  0.5555556666666656  0.4994706448351458
  0.1111110000000011  0.8888889999999989  0.4994706448351458
  0.4444443333333344  0.8888889999999989  0.4994706448351458
  0.7777776666666677  0.8888889999999989  0.4994706448351458
  0.1111110000000011  0.2222223333333322  0.9994706448351458
  0.4444443333333344  0.2222223333333322  0.9994706448351458
  0.7777776666666677  0.2222223333333322  0.9994706448351458
  0.1111110000000011  0.5555556666666656  0.9994706448351458
  0.4444443333333344  0.5555556666666656  0.9994706448351458
  0.7777776666666677  0.5555556666666656  0.9994706448351458
  0.1111110000000011  0.8888889999999989  0.9994706448351458
  0.4444443333333344  0.8888889999999989  0.9994706448351458
  0.7777776666666677  0.8888889999999989  0.9994706448351458
  0.2222223333333322  0.1111110000000011  0.2494706448351458
  0.5555556666666656  0.1111110000000011  0.2494706448351458
  0.8888889999999989  0.1111110000000011  0.2494706448351458
  0.2222223333333322  0.4444443333333344  0.2494706448351458
  0.5555556666666656  0.4444443333333344  0.2494706448351458
  0.8888889999999989  0.4444443333333344  0.2494706448351458
  0.2222223333333322  0.7777776666666677  0.2494706448351458
  0.5555556666666656  0.7777776666666677  0.2494706448351458
  0.8888889999999989  0.7777776666666677  0.2494706448351458
  0.2222223333333322  0.1111110000000011  0.7494706448351458
  0.5555556666666656  0.1111110000000011  0.7494706448351458
  0.8888889999999989  0.1111110000000011  0.7494706448351458
  0.2222223333333322  0.4444443333333344  0.7494706448351458
  0.5555556666666656  0.4444443333333344  0.7494706448351458
  0.8888889999999989  0.4444443333333344  0.7494706448351458
  0.2222223333333322  0.7777776666666677  0.7494706448351458
  0.5555556666666656  0.7777776666666677  0.7494706448351458
  0.8888889999999989  0.7777776666666677  0.7494706448351458
  0.1111110000000011  0.2222223333333322  0.1880293551648542
  0.4444443333333344  0.2222223333333322  0.1880293551648542
  0.7777776666666677  0.2222223333333322  0.1880293551648542
  0.1111110000000011  0.5555556666666656  0.1880293551648542
  0.4444443333333344  0.5555556666666656  0.1880293551648542
  0.7777776666666677  0.5555556666666656  0.1880293551648542
  0.1111110000000011  0.8888889999999989  0.1880293551648542
  0.4444443333333344  0.8888889999999989  0.1880293551648542
  0.7777776666666677  0.8888889999999989  0.1880293551648542
  0.1111110000000011  0.2222223333333322  0.6880293551648542
  0.4444443333333344  0.2222223333333322  0.6880293551648542
  0.7777776666666677  0.2222223333333322  0.6880293551648542
  0.1111110000000011  0.5555556666666656  0.6880293551648542
  0.4444443333333344  0.5555556666666656  0.6880293551648542
  0.7777776666666677  0.5555556666666656  0.6880293551648542
  0.1111110000000011  0.8888889999999989  0.6880293551648542
  0.4444443333333344  0.8888889999999989  0.6880293551648542
  0.7777776666666677  0.8888889999999989  0.6880293551648542
  0.2222223333333322  0.1111110000000011  0.4380293551648542
  0.5555556666666656  0.1111110000000011  0.4380293551648542
  0.8888889999999989  0.1111110000000011  0.4380293551648542
  0.2222223333333322  0.4444443333333344  0.4380293551648542
  0.5555556666666656  0.4444443333333344  0.4380293551648542
  0.8888889999999989  0.4444443333333344  0.4380293551648542
  0.2222223333333322  0.7777776666666677  0.4380293551648542
  0.5555556666666656  0.7777776666666677  0.4380293551648542
  0.8888889999999989  0.7777776666666677  0.4380293551648542
  0.2222223333333322  0.1111110000000011  0.9380293551648542
  0.5555556666666656  0.1111110000000011  0.9380293551648542
  0.8888889999999989  0.1111110000000011  0.9380293551648542
  0.2222223333333322  0.4444443333333344  0.9380293551648542
  0.5555556666666656  0.4444443333333344  0.9380293551648542
  0.8888889999999989  0.4444443333333344  0.9380293551648542
  0.2222223333333322  0.7777776666666677  0.9380293551648542
  0.5555556666666656  0.7777776666666677  0.9380293551648542
  0.8888889999999989  0.7777776666666677  0.9380293551648542
