Ga Sb                                   
   6.63430000000000     
     0.9380223216178494   -0.0000000000000000    0.0000000000000000
     0.0000000000000000    0.9380223216178494   -0.0000000000000000
    -0.0000000000000000    0.0000000000000000    0.9380223216178494
   Ga   Sb
     4     4
Direct
 -0.0000000000000000 -0.0000000000000000  0.0000000000000000
 -0.0000000000000000  0.5000000000000000  0.5000000000000000
  0.5000000000000000  0.0000000000000000  0.5000000000000000
  0.5000000000000000  0.5000000000000000 -0.0000000000000000
  0.2500000000000000  0.2500000000000000  0.2500000000000000
  0.7500000000000000  0.7500000000000000  0.2500000000000000
  0.7500000000000000  0.2500000000000000  0.7500000000000000
  0.2500000000000000  0.7500000000000000  0.7500000000000000
 

