Na I                                    
   1.00000000000000     
     6.5299254540110789    0.0000000000000000   -0.0000000000000000
    -0.0000000000000000    6.5299254540110789   -0.0000000000000000
     0.0000000000000000    0.0000000000000000    6.5299254540110789
   Na   I 
     4     4
Direct
 -0.0000000000000000  0.0000000000000000 -0.0000000000000000
  0.5000000000000000  0.5000000000000000 -0.0000000000000000
  0.5000000000000000 -0.0000000000000000  0.5000000000000000
  0.0000000000000000  0.5000000000000000  0.5000000000000000
  0.0000000000000000  0.0000000000000000  0.5000000000000000
  0.5000000000000000 -0.0000000000000000  0.0000000000000000
  0.0000000000000000  0.5000000000000000 -0.0000000000000000
  0.5000000000000000  0.5000000000000000  0.5000000000000000
 
