Automatic mesh
0
Gamma
     6     6     3
 0.000 0.000 0.000
