Automatic mesh
0
Gamma
     7     7     3
 0.000 0.000 0.000
