Zn4 S4                                  
   1.00000000000000     
     5.4431566810899579   -0.0000000000000000   -0.0000000000000000
     0.0000000000000000    5.4431566810899579   -0.0000000000000000
    -0.0000000000000000    0.0000000000000000    5.4431566810899579
   Zn   S 
     4     4
Direct
 -0.0000000000000000 -0.0000000000000000  0.0000000000000000
  0.5000000000000000  0.5000000000000000  0.0000000000000000
  0.5000000000000000 -0.0000000000000000  0.5000000000000000
  0.0000000000000000  0.5000000000000000  0.5000000000000000
  0.2500000000000000  0.2500000000000000  0.2500000000000000
  0.7500000000000000  0.7500000000000000  0.2500000000000000
  0.7500000000000000  0.2500000000000000  0.7500000000000000
  0.2500000000000000  0.7500000000000000  0.7500000000000000
 
