Al2 O3                                  
   1.00000000000000     
     4.8053399973287219    0.0000000000005864   -0.0000000000000000
    -2.4026699986133453    4.1615465115193686   -0.0000000000000000
     0.0000000000000000   -0.0000000000000000   13.1148469650436166
   Al   O 
    12    18
Direct
 -0.0000000000000000 -0.0000000000000000  0.3521527322210050
 -0.0000000000000000 -0.0000000000000000  0.6478472387789961
 -0.0000000000000000 -0.0000000000000000  0.1478472677789950
 -0.0000000000000000 -0.0000000000000000  0.8521527612210039
  0.6666666870000029  0.3333333429999996  0.6854860752210047
  0.6666666870000029  0.3333333429999996  0.9811806117789982
  0.6666666870000029  0.3333333429999996  0.4811806117789982
  0.6666666870000029  0.3333333429999996  0.1854860602210070
  0.3333333429999996  0.6666666870000029  0.0188193982210026
  0.3333333429999996  0.6666666870000029  0.3145139247789954
  0.3333333429999996  0.6666666870000029  0.8145139247789953
  0.3333333429999996  0.6666666870000029  0.5188193882210018
  0.3061714680183766  0.3061714680183766  0.2500000000000000
  0.6938285319816235  0.6938285319816235  0.7500000000000000
  0.6938285319816235 -0.0000000000000000  0.2500000000000000
  0.3061714680183766  0.0000000000000000  0.7500000000000000
 -0.0000000000000000  0.6938285319816235  0.2500000000000000
  0.0000000000000000  0.3061714680183765  0.7500000000000000
  0.9728381540183757  0.6395047810183736  0.5833333129999971
  0.3604951889816238  0.0271618659816259  0.0833333360000026
  0.3604951889816238  0.3333333429999996  0.5833333129999971
  0.9728381540183757  0.3333333429999997  0.0833333360000026
  0.6666666870000029  0.0271618659816259  0.5833333129999971
  0.6666666870000029  0.6395047810183736  0.0833333360000026
  0.6395047810183736  0.9728381540183757  0.9166666870000029
  0.0271618659816259  0.3604951889816238  0.4166666570000004
  0.0271618659816259  0.6666666870000029  0.9166666870000029
  0.6395047810183736  0.6666666870000029  0.4166666570000004
  0.3333333429999996  0.3604951889816239  0.9166666870000029
  0.3333333429999996  0.9728381540183757  0.4166666570000004
 
