Automatic mesh
0
Gamma
     4     4     4
 0.000 0.000 0.000
