Pb4 Te4                                  
   1.00000000000000     
     6.5607019751626279   -0.0000000000000000    0.0000000000000000
     0.0000000000000000    6.5607019751626279   -0.0000000000000000
     0.0000000000000000    0.0000000000000000    6.5607019751626279
   Pb   Te 
     4     4
Direct
 -0.0000000000000000 -0.0000000000000000  0.0000000000000000
  0.5000000000000000  0.5000000000000000  0.0000000000000000
  0.5000000000000000 -0.0000000000000000  0.5000000000000000
  0.0000000000000000  0.5000000000000000  0.5000000000000000
  0.0000000000000000 -0.0000000000000000  0.5000000000000000
  0.5000000000000000  0.0000000000000000 -0.0000000000000000
 -0.0000000000000000  0.5000000000000000  0.0000000000000000
  0.5000000000000000  0.5000000000000000  0.5000000000000000
 

