Ca4 W4 O16                              
   1.00000000000000     
     5.3202989543314727    0.0000000028345171    0.0000000000000000
    -0.0000000028345171    5.3202989543314727    0.0000000000000000
     0.0000000000000000   -0.0000000000000000   11.4438394875333653
   Ca   W    O 
     4     4    16
Direct
 -0.0000000000000000 -0.0000000000000000  0.0000000000000000
  0.5000000000000000  0.5000000000000000  0.5000000000000000
 -0.0000000000000000  0.5000000000000000  0.2500000000000000
  0.5000000000000000 -0.0000000000000000  0.7500000000000000
 -0.0000000000000000 -0.0000000000000000  0.5000000000000000
  0.5000000000000000  0.5000000000000000  0.0000000000000000
 -0.0000000000000000  0.5000000000000000  0.7500000000000000
  0.5000000000000000 -0.0000000000000000  0.2500000000000000
  0.1571864687678147  0.2421069515394882  0.4131528132393353
  0.3428135162321803  0.2578930484605118  0.9131528132393352
  0.7578930774605104  0.6571864837678194  0.6631528132393352
  0.7421069225394896  0.8428135162321806  0.1631528132393354
  0.8428135162321806  0.2578930484605118  0.8368471867606648
  0.6571864837678194  0.2421069515394882  0.3368471867606647
  0.2421069515394882  0.8428135162321806  0.5868471867606648
  0.2578930484605118  0.6571864837678194  0.0868471867606647
  0.6571864837678194  0.7421069225394896  0.9131528132393352
  0.8428135162321806  0.7578930774605104  0.4131528132393353
  0.2578930484605118  0.1571864687678147  0.1631528132393354
  0.2421069515394882  0.3428135162321803  0.6631528132393352
  0.3428135162321803  0.7578930774605104  0.3368471867606647
  0.1571864687678147  0.7421069225394896  0.8368471867606648
  0.7421069225394896  0.3428135162321803  0.0868471867606647
  0.7578930774605104  0.1571864687678147  0.5868471867606648
 

